40
    94    74    66    15    57    24    66    53    52    51    20    79    66    76    65    78    14    77    20    41    40    81    78    61    16    69    13    32    40    78    76    54    42    94    97    30    77    59    83    63
    10     6     6     6    10     2     6     5     4    10     2     6     3     8     1     8     9     9     4     6    10     2     5     1     3     2     1    10     3    10     4     5     5     3     8     7     1     5     1     7
   604   331  1144   648   499   636  1080  1434   342   930  1131   741  1202   353   779  1191  1026   406   996  1204  1313   498   376  1079   866   956  1469   230  1104  1291  1471   544  1176   486  1280   900   551   703   265   520
